
Gurobi 10.0.1 (linux64) logging started Sun Nov 26 15:37:28 2023

Set parameter LogFile to value "ArtificialInstance/ExperimentV2/S3T4K3/AdRo/gurobi1.txt"
Gurobi Optimizer version 10.0.1 build v10.0.1rc0 (linux64)

CPU model: AMD EPYC 7H12 64-Core Processor, instruction set [SSE2|AVX|AVX2]
Thread count: 128 physical cores, 128 logical processors, using up to 32 threads

Academic license 656792 - for non-commercial use only - registered to b.___@student.vu.nl
Optimize a model with 17283 rows, 16345 columns and 63485 nonzeros
Model fingerprint: 0x1889f4c7
Variable types: 1 continuous, 16344 integer (16344 binary)
Coefficient statistics:
  Matrix range     [1e+00, 4e+01]
  Objective range  [1e+00, 2e+01]
  Bounds range     [1e+00, 1e+00]
  RHS range        [1e+00, 1e+00]
Presolve removed 5506 rows and 5500 columns
Presolve time: 0.36s
Presolved: 11777 rows, 10845 columns, 42717 nonzeros
Variable types: 1 continuous, 10844 integer (10844 binary)

Root relaxation: objective 7.301212e+01, 5803 iterations, 0.49 seconds (0.42 work units)

    Nodes    |    Current Node    |     Objective Bounds      |     Work
 Expl Unexpl |  Obj  Depth IntInf | Incumbent    BestBd   Gap | It/Node Time

     0     0   73.01212    0   50          -   73.01212      -     -    0s
H    0     0                     134.1259343   73.01212  45.6%     -    1s
H    0     0                      84.5002167   73.01212  13.6%     -    1s
H    0     0                      75.2154902   73.01212  2.93%     -    1s
H    0     0                      75.0697099   73.01212  2.74%     -    1s

Cutting planes:
  Gomory: 3
  Zero half: 3

Explored 1 nodes (7836 simplex iterations) in 1.17 seconds (0.88 work units)
Thread count was 32 (of 128 available processors)

Solution count 4: 75.0697 75.2155 84.5002 134.126 

Optimal solution found (tolerance 1.00e-04)
Best objective 7.506970989475e+01, best bound 7.506970989475e+01, gap 0.0000%
